experiment/data/lkh-res/Vrp-Set-X-n172/Vrp-Set-X-n172-lkh/0.lkh1.vrp
NAME : 0
COMMENT : CVRP Instance
TYPE : CVRP
DIMENSION : 172
EDGE_WEIGHT_TYPE : EUC_2D
CAPACITY : 161
NODE_COORD_SECTION
1	50000	50000
2	36300	69700
3	12000	25900
4	55500	71800
5	52200	91800
6	23900	93500
7	30400	51700
8	85600	9600
9	3800	90400
10	17400	95100
11	29400	93500
12	94200	32400
13	40200	17600
14	76600	45000
15	47300	86200
16	26200	55000
17	66100	9200
18	44000	65500
19	67800	29100
20	34500	69100
21	56400	90300
22	95200	80200
23	69800	35200
24	29700	93000
25	6600	24400
26	88200	64200
27	77700	81800
28	30200	21200
29	82400	64700
30	14300	94600
31	10800	60000
32	12100	75500
33	69700	3200
34	47300	99500
35	34200	25200
36	59600	53400
37	24800	21100
38	94000	8800
39	8100	46800
40	14400	79600
41	24400	38500
42	43700	4200
43	38100	58300
44	26300	54900
45	15300	64600
46	18700	68800
47	24800	7100
48	2700	7000
49	64900	47700
50	24400	37000
51	14500	4900
52	58900	40200
53	10500	25100
54	98600	45200
55	48600	77300
56	67900	85100
57	10200	73400
58	61900	80900
59	13900	13800
60	10700	48900
61	92100	57900
62	68100	33600
63	92500	18500
64	26000	65500
65	4600	83200
66	53400	44000
67	11700	59000
68	60400	45300
69	66700	42800
70	87100	54800
71	94300	17100
72	18100	25200
73	17200	69600
74	21100	59700
75	8200	39000
76	11400	18900
77	65900	85200
78	40400	54400
79	16900	84500
80	10100	66300
81	42200	50300
82	12400	86100
83	28900	77800
84	92300	84200
85	46400	14800
86	37700	3200
87	48200	57000
88	93300	15600
89	98700	67800
90	99500	6200
91	24100	24200
92	80200	8600
93	94400	18500
94	97200	4800
95	96400	7700
96	24400	24400
97	99200	6700
98	8900	15700
99	98900	5900
100	95300	7600
101	34700	35800
102	41500	49400
103	97100	67200
104	94100	14600
105	39100	59400
106	90400	10600
107	64900	9200
108	95100	9400
109	91700	7700
110	13400	33100
111	94800	18300
112	38900	25400
113	79600	19700
114	24300	28300
115	96500	17400
116	30400	38100
117	91400	66100
118	19800	24500
119	20700	25800
120	92600	8500
121	96100	72600
122	88100	14500
123	84900	11500
124	92300	67800
125	57700	53500
126	26600	21600
127	16000	15400
128	89000	10500
129	36800	72500
130	56300	53800
131	50900	50200
132	92100	17400
133	81900	26600
134	32400	18100
135	50000	58000
136	43500	65200
137	47000	52400
138	46000	34400
139	91700	63000
140	84300	74700
141	35500	70000
142	96900	65300
143	95600	7600
144	47000	46400
145	94000	70400
146	98200	73800
147	99800	70400
148	41600	49200
149	21500	22200
150	99200	11500
151	43300	44600
152	35400	55200
153	88400	20400
154	43900	34500
155	47200	66300
156	98000	11600
157	49400	57300
158	5100	2700
159	93400	4400
160	93000	83500
161	21600	3000
162	86200	25100
163	26700	21500
164	21200	7100
165	94100	6800
166	91800	71900
167	55400	70900
168	60200	59100
169	93600	72500
170	42800	53600
171	40500	59400
172	62900	45000
DEMAND_SECTION
1	0
2	30
3	82
4	70
5	92
6	25
7	23
8	11
9	41
10	15
11	5
12	17
13	70
14	36
15	47
16	24
17	11
18	6
19	23
20	5
21	54
22	74
23	6
24	9
25	58
26	96
27	80
28	100
29	65
30	3
31	46
32	16
33	47
34	33
35	84
36	73
37	75
38	27
39	99
40	50
41	65
42	79
43	42
44	46
45	9
46	13
47	97
48	79
49	6
50	63
51	65
52	14
53	91
54	6
55	6
56	69
57	13
58	55
59	69
60	67
61	53
62	35
63	19
64	49
65	47
66	36
67	24
68	15
69	15
70	52
71	48
72	60
73	43
74	11
75	72
76	62
77	73
78	43
79	25
80	38
81	19
82	25
83	31
84	77
85	70
86	84
87	36
88	3
89	64
90	36
91	70
92	15
93	8
94	14
95	27
96	73
97	11
98	90
99	34
100	7
101	72
102	52
103	90
104	45
105	12
106	2
107	11
108	8
109	16
110	75
111	38
112	52
113	20
114	82
115	20
116	94
117	61
118	84
119	76
120	34
121	51
122	50
123	44
124	53
125	97
126	81
127	58
128	47
129	4
130	74
131	74
132	42
133	43
134	51
135	94
136	17
137	45
138	88
139	63
140	66
141	34
142	72
143	27
144	78
145	53
146	64
147	58
148	86
149	94
150	23
151	51
152	21
153	34
154	86
155	36
156	35
157	14
158	72
159	33
160	98
161	60
162	45
163	60
164	80
165	13
166	87
167	75
168	77
169	71
170	49
171	22
172	2
DEPOT_SECTION
1
-1
EOF
