experiment/data/lkh-res/Vrp-Set-X-n172/Vrp-Set-X-n172-lkh/0.lkh1.log
PARAMETER_FILE = baseline_results/cvrp_lkh/Vrp-Set-X-n172/Vrp-Set-X-n172-lkh/0.lkh1.par
Reading PROBLEM_FILE: "baseline_results/cvrp_lkh/Vrp-Set-X-n172/Vrp-Set-X-n172-lkh/0.lkh1.vrp" ... done
ASCENT_CANDIDATES = 50
BACKBONE_TRIALS = 0
BACKTRACKING = NO
# BWTSP =
# CANDIDATE_FILE =
CANDIDATE_SET_TYPE = ALPHA
# DISTANCE =
DEPOT = 1
# EDGE_FILE =
EXCESS = 0.00581395
EXTERNAL_SALESMEN = 0
EXTRA_CANDIDATES = 0 
EXTRA_CANDIDATE_SET_TYPE = QUADRANT
GAIN23 = NO
GAIN_CRITERION = YES
INITIAL_PERIOD = 100
INITIAL_STEP_SIZE = 1
INITIAL_TOUR_ALGORITHM = WALK
# INITIAL_TOUR_FILE = 
INITIAL_TOUR_FRACTION = 1.000
# INPUT_TOUR_FILE = 
KICK_TYPE = 4
KICKS = 1
# MAX_BREADTH =
MAKESPAN = NO
MAX_CANDIDATES = 5 
MAX_SWAPS = 0
MAX_TRIALS = 10000
# MERGE_TOUR_FILE =
MOVE_TYPE = 5 SPECIAL
MTSP_MIN_SIZE = 1
MTSP_MAX_SIZE = 171
# MTSP_SOLUTION_FILE = 
# NONSEQUENTIAL_MOVE_TYPE = 5
# OPTIMUM =
OUTPUT_TOUR_FILE = baseline_results/cvrp_lkh/Vrp-Set-X-n172/Vrp-Set-X-n172-lkh/0.lkh1.tour
PATCHING_A = 1 
PATCHING_C = 0 
# PI_FILE = 
POPMUSIC_INITIAL_TOUR = NO
POPMUSIC_MAX_NEIGHBORS = 5
POPMUSIC_SAMPLE_SIZE = 10
POPMUSIC_SOLUTIONS = 50
POPMUSIC_TRIALS = 1
POPULATION_SIZE = 10
PRECISION = 100
PROBLEM_FILE = baseline_results/cvrp_lkh/Vrp-Set-X-n172/Vrp-Set-X-n172-lkh/0.lkh1.vrp
RECOMBINATION = IPT
RESTRICTED_SEARCH = YES
RUNS = 1
SALESMEN = 51
SCALE = 1
SEED = 1234
# SINTEF_SOLUTION_FILE = 
STOP_AT_OPTIMUM = YES
SUBGRADIENT = YES
# SUBPROBLEM_SIZE =
# SUBPROBLEM_TOUR_FILE = 
SUBSEQUENT_MOVE_TYPE = 5 SPECIAL
SUBSEQUENT_PATCHING = YES
# TIME_LIMIT =
# TOTAL_TIME_LIMIT =
# TOUR_FILE = 
TRACE_LEVEL = 1
VEHICLES = 51

Lower bound = 2301677.4, Ascent time = 0.05 sec.
Cand.min = 5, Cand.avg = 5.0, Cand.max = 5
Preprocessing time = 0.05 sec.
* 1: Cost = 1_5727549, Time = 0.23 sec. 
* 2: Cost = 1_5717157, Time = 0.24 sec. 
* 3: Cost = 0_5550050, Time = 0.29 sec. 
Writing OUTPUT_TOUR_FILE: "baseline_results/cvrp_lkh/Vrp-Set-X-n172/Vrp-Set-X-n172-lkh/0.lkh1.tour" ... done
* 5: Cost = 0_5455953, Time = 0.45 sec. 
Writing OUTPUT_TOUR_FILE: "baseline_results/cvrp_lkh/Vrp-Set-X-n172/Vrp-Set-X-n172-lkh/0.lkh1.tour" ... done
* 7: Cost = 0_5453851, Time = 0.59 sec. 
Writing OUTPUT_TOUR_FILE: "baseline_results/cvrp_lkh/Vrp-Set-X-n172/Vrp-Set-X-n172-lkh/0.lkh1.tour" ... done
* 8: Cost = 0_5366222, Time = 0.60 sec. 
Writing OUTPUT_TOUR_FILE: "baseline_results/cvrp_lkh/Vrp-Set-X-n172/Vrp-Set-X-n172-lkh/0.lkh1.tour" ... done
* 9: Cost = 0_5363769, Time = 0.62 sec. 
Writing OUTPUT_TOUR_FILE: "baseline_results/cvrp_lkh/Vrp-Set-X-n172/Vrp-Set-X-n172-lkh/0.lkh1.tour" ... done
* 10: Cost = 0_5350787, Time = 0.63 sec. 
Writing OUTPUT_TOUR_FILE: "baseline_results/cvrp_lkh/Vrp-Set-X-n172/Vrp-Set-X-n172-lkh/0.lkh1.tour" ... done
* 13: Cost = 0_5194702, Time = 0.67 sec. 
Writing OUTPUT_TOUR_FILE: "baseline_results/cvrp_lkh/Vrp-Set-X-n172/Vrp-Set-X-n172-lkh/0.lkh1.tour" ... done
* 18: Cost = 0_5170025, Time = 0.82 sec. 
Writing OUTPUT_TOUR_FILE: "baseline_results/cvrp_lkh/Vrp-Set-X-n172/Vrp-Set-X-n172-lkh/0.lkh1.tour" ... done
* 20: Cost = 0_5156101, Time = 0.86 sec. 
Writing OUTPUT_TOUR_FILE: "baseline_results/cvrp_lkh/Vrp-Set-X-n172/Vrp-Set-X-n172-lkh/0.lkh1.tour" ... done
* 26: Cost = 0_5155367, Time = 1.00 sec. 
Writing OUTPUT_TOUR_FILE: "baseline_results/cvrp_lkh/Vrp-Set-X-n172/Vrp-Set-X-n172-lkh/0.lkh1.tour" ... done
* 27: Cost = 0_5123670, Time = 1.05 sec. 
Writing OUTPUT_TOUR_FILE: "baseline_results/cvrp_lkh/Vrp-Set-X-n172/Vrp-Set-X-n172-lkh/0.lkh1.tour" ... done
* 30: Cost = 0_5118340, Time = 1.16 sec. 
Writing OUTPUT_TOUR_FILE: "baseline_results/cvrp_lkh/Vrp-Set-X-n172/Vrp-Set-X-n172-lkh/0.lkh1.tour" ... done
* 31: Cost = 0_5101530, Time = 1.22 sec. 
Writing OUTPUT_TOUR_FILE: "baseline_results/cvrp_lkh/Vrp-Set-X-n172/Vrp-Set-X-n172-lkh/0.lkh1.tour" ... done
* 34: Cost = 0_5099777, Time = 1.42 sec. 
Writing OUTPUT_TOUR_FILE: "baseline_results/cvrp_lkh/Vrp-Set-X-n172/Vrp-Set-X-n172-lkh/0.lkh1.tour" ... done
* 38: Cost = 0_4988783, Time = 1.58 sec. 
Writing OUTPUT_TOUR_FILE: "baseline_results/cvrp_lkh/Vrp-Set-X-n172/Vrp-Set-X-n172-lkh/0.lkh1.tour" ... done
* 49: Cost = 0_4988615, Time = 1.96 sec. 
Writing OUTPUT_TOUR_FILE: "baseline_results/cvrp_lkh/Vrp-Set-X-n172/Vrp-Set-X-n172-lkh/0.lkh1.tour" ... done
* 50: Cost = 0_4988587, Time = 1.96 sec. 
Writing OUTPUT_TOUR_FILE: "baseline_results/cvrp_lkh/Vrp-Set-X-n172/Vrp-Set-X-n172-lkh/0.lkh1.tour" ... done
* 56: Cost = 0_4984555, Time = 2.04 sec. 
Writing OUTPUT_TOUR_FILE: "baseline_results/cvrp_lkh/Vrp-Set-X-n172/Vrp-Set-X-n172-lkh/0.lkh1.tour" ... done
* 63: Cost = 0_4971644, Time = 2.30 sec. 
Writing OUTPUT_TOUR_FILE: "baseline_results/cvrp_lkh/Vrp-Set-X-n172/Vrp-Set-X-n172-lkh/0.lkh1.tour" ... done
* 64: Cost = 0_4956301, Time = 2.33 sec. 
Writing OUTPUT_TOUR_FILE: "baseline_results/cvrp_lkh/Vrp-Set-X-n172/Vrp-Set-X-n172-lkh/0.lkh1.tour" ... done
* 67: Cost = 0_4954708, Time = 2.38 sec. 
Writing OUTPUT_TOUR_FILE: "baseline_results/cvrp_lkh/Vrp-Set-X-n172/Vrp-Set-X-n172-lkh/0.lkh1.tour" ... done
* 74: Cost = 0_4929304, Time = 2.63 sec. 
Writing OUTPUT_TOUR_FILE: "baseline_results/cvrp_lkh/Vrp-Set-X-n172/Vrp-Set-X-n172-lkh/0.lkh1.tour" ... done
* 93: Cost = 0_4922736, Time = 3.46 sec. 
Writing OUTPUT_TOUR_FILE: "baseline_results/cvrp_lkh/Vrp-Set-X-n172/Vrp-Set-X-n172-lkh/0.lkh1.tour" ... done
* 98: Cost = 0_4907827, Time = 3.55 sec. 
Writing OUTPUT_TOUR_FILE: "baseline_results/cvrp_lkh/Vrp-Set-X-n172/Vrp-Set-X-n172-lkh/0.lkh1.tour" ... done
* 106: Cost = 0_4906506, Time = 3.80 sec. 
Writing OUTPUT_TOUR_FILE: "baseline_results/cvrp_lkh/Vrp-Set-X-n172/Vrp-Set-X-n172-lkh/0.lkh1.tour" ... done
* 115: Cost = 0_4889810, Time = 4.17 sec. 
Writing OUTPUT_TOUR_FILE: "baseline_results/cvrp_lkh/Vrp-Set-X-n172/Vrp-Set-X-n172-lkh/0.lkh1.tour" ... done
* 136: Cost = 0_4889720, Time = 5.07 sec. 
Writing OUTPUT_TOUR_FILE: "baseline_results/cvrp_lkh/Vrp-Set-X-n172/Vrp-Set-X-n172-lkh/0.lkh1.tour" ... done
* 138: Cost = 0_4888095, Time = 5.09 sec. 
Writing OUTPUT_TOUR_FILE: "baseline_results/cvrp_lkh/Vrp-Set-X-n172/Vrp-Set-X-n172-lkh/0.lkh1.tour" ... done
* 150: Cost = 0_4865559, Time = 5.39 sec. 
Writing OUTPUT_TOUR_FILE: "baseline_results/cvrp_lkh/Vrp-Set-X-n172/Vrp-Set-X-n172-lkh/0.lkh1.tour" ... done
* 153: Cost = 0_4864603, Time = 5.48 sec. 
Writing OUTPUT_TOUR_FILE: "baseline_results/cvrp_lkh/Vrp-Set-X-n172/Vrp-Set-X-n172-lkh/0.lkh1.tour" ... done
* 160: Cost = 0_4864594, Time = 5.79 sec. 
Writing OUTPUT_TOUR_FILE: "baseline_results/cvrp_lkh/Vrp-Set-X-n172/Vrp-Set-X-n172-lkh/0.lkh1.tour" ... done
* 181: Cost = 0_4864022, Time = 6.43 sec. 
Writing OUTPUT_TOUR_FILE: "baseline_results/cvrp_lkh/Vrp-Set-X-n172/Vrp-Set-X-n172-lkh/0.lkh1.tour" ... done
* 193: Cost = 0_4862504, Time = 6.58 sec. 
Writing OUTPUT_TOUR_FILE: "baseline_results/cvrp_lkh/Vrp-Set-X-n172/Vrp-Set-X-n172-lkh/0.lkh1.tour" ... done
* 206: Cost = 0_4852811, Time = 6.96 sec. 
Writing OUTPUT_TOUR_FILE: "baseline_results/cvrp_lkh/Vrp-Set-X-n172/Vrp-Set-X-n172-lkh/0.lkh1.tour" ... done
* 245: Cost = 0_4848583, Time = 8.30 sec. 
Writing OUTPUT_TOUR_FILE: "baseline_results/cvrp_lkh/Vrp-Set-X-n172/Vrp-Set-X-n172-lkh/0.lkh1.tour" ... done
* 292: Cost = 0_4848264, Time = 9.91 sec. 
Writing OUTPUT_TOUR_FILE: "baseline_results/cvrp_lkh/Vrp-Set-X-n172/Vrp-Set-X-n172-lkh/0.lkh1.tour" ... done
* 306: Cost = 0_4844009, Time = 10.24 sec. 
Writing OUTPUT_TOUR_FILE: "baseline_results/cvrp_lkh/Vrp-Set-X-n172/Vrp-Set-X-n172-lkh/0.lkh1.tour" ... done
* 353: Cost = 0_4839210, Time = 11.90 sec. 
Writing OUTPUT_TOUR_FILE: "baseline_results/cvrp_lkh/Vrp-Set-X-n172/Vrp-Set-X-n172-lkh/0.lkh1.tour" ... done
* 414: Cost = 0_4839168, Time = 13.73 sec. 
Writing OUTPUT_TOUR_FILE: "baseline_results/cvrp_lkh/Vrp-Set-X-n172/Vrp-Set-X-n172-lkh/0.lkh1.tour" ... done
* 418: Cost = 0_4836692, Time = 13.83 sec. 
Writing OUTPUT_TOUR_FILE: "baseline_results/cvrp_lkh/Vrp-Set-X-n172/Vrp-Set-X-n172-lkh/0.lkh1.tour" ... done
* 436: Cost = 0_4836284, Time = 14.28 sec. 
Writing OUTPUT_TOUR_FILE: "baseline_results/cvrp_lkh/Vrp-Set-X-n172/Vrp-Set-X-n172-lkh/0.lkh1.tour" ... done
* 469: Cost = 0_4835708, Time = 15.44 sec. 
Writing OUTPUT_TOUR_FILE: "baseline_results/cvrp_lkh/Vrp-Set-X-n172/Vrp-Set-X-n172-lkh/0.lkh1.tour" ... done
* 471: Cost = 0_4833582, Time = 15.52 sec. 
Writing OUTPUT_TOUR_FILE: "baseline_results/cvrp_lkh/Vrp-Set-X-n172/Vrp-Set-X-n172-lkh/0.lkh1.tour" ... done
* 474: Cost = 0_4832536, Time = 15.68 sec. 
Writing OUTPUT_TOUR_FILE: "baseline_results/cvrp_lkh/Vrp-Set-X-n172/Vrp-Set-X-n172-lkh/0.lkh1.tour" ... done
* 493: Cost = 0_4824878, Time = 16.39 sec. 
Writing OUTPUT_TOUR_FILE: "baseline_results/cvrp_lkh/Vrp-Set-X-n172/Vrp-Set-X-n172-lkh/0.lkh1.tour" ... done
* 499: Cost = 0_4824157, Time = 16.63 sec. 
Writing OUTPUT_TOUR_FILE: "baseline_results/cvrp_lkh/Vrp-Set-X-n172/Vrp-Set-X-n172-lkh/0.lkh1.tour" ... done
* 508: Cost = 0_4811975, Time = 16.98 sec. 
Writing OUTPUT_TOUR_FILE: "baseline_results/cvrp_lkh/Vrp-Set-X-n172/Vrp-Set-X-n172-lkh/0.lkh1.tour" ... done
* 515: Cost = 0_4810811, Time = 17.27 sec. 
Writing OUTPUT_TOUR_FILE: "baseline_results/cvrp_lkh/Vrp-Set-X-n172/Vrp-Set-X-n172-lkh/0.lkh1.tour" ... done
* 529: Cost = 0_4810197, Time = 17.67 sec. 
Writing OUTPUT_TOUR_FILE: "baseline_results/cvrp_lkh/Vrp-Set-X-n172/Vrp-Set-X-n172-lkh/0.lkh1.tour" ... done
* 534: Cost = 0_4809134, Time = 17.73 sec. 
Writing OUTPUT_TOUR_FILE: "baseline_results/cvrp_lkh/Vrp-Set-X-n172/Vrp-Set-X-n172-lkh/0.lkh1.tour" ... done
* 541: Cost = 0_4802598, Time = 18.03 sec. 
Writing OUTPUT_TOUR_FILE: "baseline_results/cvrp_lkh/Vrp-Set-X-n172/Vrp-Set-X-n172-lkh/0.lkh1.tour" ... done
* 566: Cost = 0_4801037, Time = 18.75 sec. 
Writing OUTPUT_TOUR_FILE: "baseline_results/cvrp_lkh/Vrp-Set-X-n172/Vrp-Set-X-n172-lkh/0.lkh1.tour" ... done
* 641: Cost = 0_4789068, Time = 20.90 sec. 
Writing OUTPUT_TOUR_FILE: "baseline_results/cvrp_lkh/Vrp-Set-X-n172/Vrp-Set-X-n172-lkh/0.lkh1.tour" ... done
* 649: Cost = 0_4786966, Time = 21.08 sec. 
Writing OUTPUT_TOUR_FILE: "baseline_results/cvrp_lkh/Vrp-Set-X-n172/Vrp-Set-X-n172-lkh/0.lkh1.tour" ... done
* 701: Cost = 0_4786842, Time = 22.33 sec. 
Writing OUTPUT_TOUR_FILE: "baseline_results/cvrp_lkh/Vrp-Set-X-n172/Vrp-Set-X-n172-lkh/0.lkh1.tour" ... done
* 723: Cost = 0_4781042, Time = 22.90 sec. 
Writing OUTPUT_TOUR_FILE: "baseline_results/cvrp_lkh/Vrp-Set-X-n172/Vrp-Set-X-n172-lkh/0.lkh1.tour" ... done
* 739: Cost = 0_4778235, Time = 23.37 sec. 
Writing OUTPUT_TOUR_FILE: "baseline_results/cvrp_lkh/Vrp-Set-X-n172/Vrp-Set-X-n172-lkh/0.lkh1.tour" ... done
* 753: Cost = 0_4774094, Time = 23.79 sec. 
Writing OUTPUT_TOUR_FILE: "baseline_results/cvrp_lkh/Vrp-Set-X-n172/Vrp-Set-X-n172-lkh/0.lkh1.tour" ... done
* 756: Cost = 0_4773671, Time = 23.81 sec. 
Writing OUTPUT_TOUR_FILE: "baseline_results/cvrp_lkh/Vrp-Set-X-n172/Vrp-Set-X-n172-lkh/0.lkh1.tour" ... done
* 840: Cost = 0_4773190, Time = 26.41 sec. 
Writing OUTPUT_TOUR_FILE: "baseline_results/cvrp_lkh/Vrp-Set-X-n172/Vrp-Set-X-n172-lkh/0.lkh1.tour" ... done
* 864: Cost = 0_4772851, Time = 27.16 sec. 
Writing OUTPUT_TOUR_FILE: "baseline_results/cvrp_lkh/Vrp-Set-X-n172/Vrp-Set-X-n172-lkh/0.lkh1.tour" ... done
* 871: Cost = 0_4771358, Time = 27.25 sec. 
Writing OUTPUT_TOUR_FILE: "baseline_results/cvrp_lkh/Vrp-Set-X-n172/Vrp-Set-X-n172-lkh/0.lkh1.tour" ... done
* 878: Cost = 0_4769982, Time = 27.63 sec. 
Writing OUTPUT_TOUR_FILE: "baseline_results/cvrp_lkh/Vrp-Set-X-n172/Vrp-Set-X-n172-lkh/0.lkh1.tour" ... done
* 883: Cost = 0_4764530, Time = 27.73 sec. 
Writing OUTPUT_TOUR_FILE: "baseline_results/cvrp_lkh/Vrp-Set-X-n172/Vrp-Set-X-n172-lkh/0.lkh1.tour" ... done
* 890: Cost = 0_4757573, Time = 27.81 sec. 
Writing OUTPUT_TOUR_FILE: "baseline_results/cvrp_lkh/Vrp-Set-X-n172/Vrp-Set-X-n172-lkh/0.lkh1.tour" ... done
* 903: Cost = 0_4756148, Time = 28.42 sec. 
Writing OUTPUT_TOUR_FILE: "baseline_results/cvrp_lkh/Vrp-Set-X-n172/Vrp-Set-X-n172-lkh/0.lkh1.tour" ... done
* 904: Cost = 0_4755743, Time = 28.44 sec. 
Writing OUTPUT_TOUR_FILE: "baseline_results/cvrp_lkh/Vrp-Set-X-n172/Vrp-Set-X-n172-lkh/0.lkh1.tour" ... done
* 914: Cost = 0_4755023, Time = 28.78 sec. 
Writing OUTPUT_TOUR_FILE: "baseline_results/cvrp_lkh/Vrp-Set-X-n172/Vrp-Set-X-n172-lkh/0.lkh1.tour" ... done
* 939: Cost = 0_4754984, Time = 29.35 sec. 
Writing OUTPUT_TOUR_FILE: "baseline_results/cvrp_lkh/Vrp-Set-X-n172/Vrp-Set-X-n172-lkh/0.lkh1.tour" ... done
* 1106: Cost = 0_4751175, Time = 34.05 sec. 
Writing OUTPUT_TOUR_FILE: "baseline_results/cvrp_lkh/Vrp-Set-X-n172/Vrp-Set-X-n172-lkh/0.lkh1.tour" ... done
* 1388: Cost = 0_4748640, Time = 43.40 sec. 
Writing OUTPUT_TOUR_FILE: "baseline_results/cvrp_lkh/Vrp-Set-X-n172/Vrp-Set-X-n172-lkh/0.lkh1.tour" ... done
* 1397: Cost = 0_4747234, Time = 43.69 sec. 
Writing OUTPUT_TOUR_FILE: "baseline_results/cvrp_lkh/Vrp-Set-X-n172/Vrp-Set-X-n172-lkh/0.lkh1.tour" ... done
* 1437: Cost = 0_4746766, Time = 45.14 sec. 
Writing OUTPUT_TOUR_FILE: "baseline_results/cvrp_lkh/Vrp-Set-X-n172/Vrp-Set-X-n172-lkh/0.lkh1.tour" ... done
* 1438: Cost = 0_4746219, Time = 45.17 sec. 
Writing OUTPUT_TOUR_FILE: "baseline_results/cvrp_lkh/Vrp-Set-X-n172/Vrp-Set-X-n172-lkh/0.lkh1.tour" ... done
* 1509: Cost = 0_4745288, Time = 47.52 sec. 
Writing OUTPUT_TOUR_FILE: "baseline_results/cvrp_lkh/Vrp-Set-X-n172/Vrp-Set-X-n172-lkh/0.lkh1.tour" ... done
* 1634: Cost = 0_4741193, Time = 51.51 sec. 
Writing OUTPUT_TOUR_FILE: "baseline_results/cvrp_lkh/Vrp-Set-X-n172/Vrp-Set-X-n172-lkh/0.lkh1.tour" ... done
* 2052: Cost = 0_4741008, Time = 64.19 sec. 
Writing OUTPUT_TOUR_FILE: "baseline_results/cvrp_lkh/Vrp-Set-X-n172/Vrp-Set-X-n172-lkh/0.lkh1.tour" ... done
* 2066: Cost = 0_4734922, Time = 64.65 sec. 
Writing OUTPUT_TOUR_FILE: "baseline_results/cvrp_lkh/Vrp-Set-X-n172/Vrp-Set-X-n172-lkh/0.lkh1.tour" ... done
* 2103: Cost = 0_4733286, Time = 66.08 sec. 
Writing OUTPUT_TOUR_FILE: "baseline_results/cvrp_lkh/Vrp-Set-X-n172/Vrp-Set-X-n172-lkh/0.lkh1.tour" ... done
* 2166: Cost = 0_4732995, Time = 68.10 sec. 
Writing OUTPUT_TOUR_FILE: "baseline_results/cvrp_lkh/Vrp-Set-X-n172/Vrp-Set-X-n172-lkh/0.lkh1.tour" ... done
* 2181: Cost = 0_4731873, Time = 68.26 sec. 
Writing OUTPUT_TOUR_FILE: "baseline_results/cvrp_lkh/Vrp-Set-X-n172/Vrp-Set-X-n172-lkh/0.lkh1.tour" ... done
* 2194: Cost = 0_4731861, Time = 68.78 sec. 
Writing OUTPUT_TOUR_FILE: "baseline_results/cvrp_lkh/Vrp-Set-X-n172/Vrp-Set-X-n172-lkh/0.lkh1.tour" ... done
* 2201: Cost = 0_4720999, Time = 68.90 sec. 
Writing OUTPUT_TOUR_FILE: "baseline_results/cvrp_lkh/Vrp-Set-X-n172/Vrp-Set-X-n172-lkh/0.lkh1.tour" ... done
* 2235: Cost = 0_4720489, Time = 70.15 sec. 
Writing OUTPUT_TOUR_FILE: "baseline_results/cvrp_lkh/Vrp-Set-X-n172/Vrp-Set-X-n172-lkh/0.lkh1.tour" ... done
* 2560: Cost = 0_4717867, Time = 80.61 sec. 
Writing OUTPUT_TOUR_FILE: "baseline_results/cvrp_lkh/Vrp-Set-X-n172/Vrp-Set-X-n172-lkh/0.lkh1.tour" ... done
* 2733: Cost = 0_4713099, Time = 87.13 sec. 
Writing OUTPUT_TOUR_FILE: "baseline_results/cvrp_lkh/Vrp-Set-X-n172/Vrp-Set-X-n172-lkh/0.lkh1.tour" ... done
* 2736: Cost = 0_4708029, Time = 87.19 sec. 
Writing OUTPUT_TOUR_FILE: "baseline_results/cvrp_lkh/Vrp-Set-X-n172/Vrp-Set-X-n172-lkh/0.lkh1.tour" ... done
* 2769: Cost = 0_4707519, Time = 88.57 sec. 
Writing OUTPUT_TOUR_FILE: "baseline_results/cvrp_lkh/Vrp-Set-X-n172/Vrp-Set-X-n172-lkh/0.lkh1.tour" ... done
* 2868: Cost = 0_4706248, Time = 92.04 sec. 
Writing OUTPUT_TOUR_FILE: "baseline_results/cvrp_lkh/Vrp-Set-X-n172/Vrp-Set-X-n172-lkh/0.lkh1.tour" ... done
* 2932: Cost = 0_4706026, Time = 94.38 sec. 
Writing OUTPUT_TOUR_FILE: "baseline_results/cvrp_lkh/Vrp-Set-X-n172/Vrp-Set-X-n172-lkh/0.lkh1.tour" ... done
* 3011: Cost = 0_4705961, Time = 96.64 sec. 
Writing OUTPUT_TOUR_FILE: "baseline_results/cvrp_lkh/Vrp-Set-X-n172/Vrp-Set-X-n172-lkh/0.lkh1.tour" ... done
* 3031: Cost = 0_4705892, Time = 97.23 sec. 
Writing OUTPUT_TOUR_FILE: "baseline_results/cvrp_lkh/Vrp-Set-X-n172/Vrp-Set-X-n172-lkh/0.lkh1.tour" ... done
* 3448: Cost = 0_4704317, Time = 112.59 sec. 
Writing OUTPUT_TOUR_FILE: "baseline_results/cvrp_lkh/Vrp-Set-X-n172/Vrp-Set-X-n172-lkh/0.lkh1.tour" ... done
* 3462: Cost = 0_4702695, Time = 113.14 sec. 
Writing OUTPUT_TOUR_FILE: "baseline_results/cvrp_lkh/Vrp-Set-X-n172/Vrp-Set-X-n172-lkh/0.lkh1.tour" ... done
* 3466: Cost = 0_4699760, Time = 113.28 sec. 
Writing OUTPUT_TOUR_FILE: "baseline_results/cvrp_lkh/Vrp-Set-X-n172/Vrp-Set-X-n172-lkh/0.lkh1.tour" ... done
* 3472: Cost = 0_4698478, Time = 113.42 sec. 
Writing OUTPUT_TOUR_FILE: "baseline_results/cvrp_lkh/Vrp-Set-X-n172/Vrp-Set-X-n172-lkh/0.lkh1.tour" ... done
* 3807: Cost = 0_4698033, Time = 123.73 sec. 
Writing OUTPUT_TOUR_FILE: "baseline_results/cvrp_lkh/Vrp-Set-X-n172/Vrp-Set-X-n172-lkh/0.lkh1.tour" ... done
* 3859: Cost = 0_4698004, Time = 125.29 sec. 
Writing OUTPUT_TOUR_FILE: "baseline_results/cvrp_lkh/Vrp-Set-X-n172/Vrp-Set-X-n172-lkh/0.lkh1.tour" ... done
* 4660: Cost = 0_4696291, Time = 158.98 sec. 
Writing OUTPUT_TOUR_FILE: "baseline_results/cvrp_lkh/Vrp-Set-X-n172/Vrp-Set-X-n172-lkh/0.lkh1.tour" ... done
* 4910: Cost = 0_4695888, Time = 170.23 sec. 
Writing OUTPUT_TOUR_FILE: "baseline_results/cvrp_lkh/Vrp-Set-X-n172/Vrp-Set-X-n172-lkh/0.lkh1.tour" ... done
* 5499: Cost = 0_4692382, Time = 191.95 sec. 
Writing OUTPUT_TOUR_FILE: "baseline_results/cvrp_lkh/Vrp-Set-X-n172/Vrp-Set-X-n172-lkh/0.lkh1.tour" ... done
* 5877: Cost = 0_4692334, Time = 205.47 sec. 
Writing OUTPUT_TOUR_FILE: "baseline_results/cvrp_lkh/Vrp-Set-X-n172/Vrp-Set-X-n172-lkh/0.lkh1.tour" ... done
* 6208: Cost = 0_4690730, Time = 217.29 sec. 
Writing OUTPUT_TOUR_FILE: "baseline_results/cvrp_lkh/Vrp-Set-X-n172/Vrp-Set-X-n172-lkh/0.lkh1.tour" ... done
* 6220: Cost = 0_4690194, Time = 217.70 sec. 
Writing OUTPUT_TOUR_FILE: "baseline_results/cvrp_lkh/Vrp-Set-X-n172/Vrp-Set-X-n172-lkh/0.lkh1.tour" ... done
* 6245: Cost = 0_4690071, Time = 218.68 sec. 
Writing OUTPUT_TOUR_FILE: "baseline_results/cvrp_lkh/Vrp-Set-X-n172/Vrp-Set-X-n172-lkh/0.lkh1.tour" ... done
* 7388: Cost = 0_4689999, Time = 261.05 sec. 
Writing OUTPUT_TOUR_FILE: "baseline_results/cvrp_lkh/Vrp-Set-X-n172/Vrp-Set-X-n172-lkh/0.lkh1.tour" ... done
* 7395: Cost = 0_4688369, Time = 261.32 sec. 
Writing OUTPUT_TOUR_FILE: "baseline_results/cvrp_lkh/Vrp-Set-X-n172/Vrp-Set-X-n172-lkh/0.lkh1.tour" ... done
* 7497: Cost = 0_4687407, Time = 265.68 sec. 
Writing OUTPUT_TOUR_FILE: "baseline_results/cvrp_lkh/Vrp-Set-X-n172/Vrp-Set-X-n172-lkh/0.lkh1.tour" ... done
* 8550: Cost = 0_4686947, Time = 310.43 sec. 
Writing OUTPUT_TOUR_FILE: "baseline_results/cvrp_lkh/Vrp-Set-X-n172/Vrp-Set-X-n172-lkh/0.lkh1.tour" ... done
Population:
  1: 0_4686947
Run 1: Cost = 0_4686947, Time = 369.49 sec. 

Successes/Runs = 0/1 
Cost.min = 4686947, Cost.avg = 4686947.00, Cost.max = 4686947
Gap.min = 0.0000%, Gap.avg = 0.0000%, Gap.max = 0.0000%
Penalty.min = 0, Penalty.avg = 0.00, Penalty.max = 0
Trials.min = 10000, Trials.avg = 10000.0, Trials.max = 10000
Time.min = 369.49 sec., Time.avg = 369.49 sec., Time.max = 369.49 sec.
Time.total = 369.55 sec.
  Size.min = 2, Size.max = 9, Penalty = 0
  Cost.min = 17608, Cost.max = 141870, Cost.sum = 4686947
Best CVRP solution:
  Cost = 0_4686947

