experiment/data/lkh-res/Vrp-Set-X-n172/Vrp-Set-X-n172-lkh/0.lkh1.tour
NAME : 0.4686947.tour
COMMENT : Length = 4686947
COMMENT : Found by LKH-3 [Keld Helsgaun] Tue Apr  9 03:35:33 2024
TYPE : TOUR
DIMENSION : 222
TOUR_SECTION
1
3
25
152
196
106
120
38
108
95
143
100
165
109
220
72
39
210
146
117
14
217
63
97
90
99
94
159
8
189
142
89
54
69
201
154
101
204
114
91
175
140
166
49
195
118
119
203
84
22
197
138
19
62
52
188
68
125
170
181
13
86
207
116
41
219
24
11
6
10
30
9
65
32
173
153
88
104
156
150
115
214
23
132
71
111
93
12
172
192
105
136
155
135
179
28
163
221
64
46
73
45
44
208
149
50
222
131
43
78
186
56
5
213
51
158
7
202
122
128
123
113
183
58
21
15
190
171
2
141
20
83
34
55
218
74
75
110
184
151
66
130
178
81
102
148
182
121
147
70
200
18
129
79
82
40
57
80
205
167
4
157
177
169
103
174
144
137
87
176
59
98
211
77
27
198
133
162
92
33
17
206
139
160
191
168
36
185
164
48
215
47
161
180
60
31
67
16
209
37
126
194
53
76
199
85
42
107
193
96
35
212
26
29
216
112
134
127
187
61
124
145
-1
EOF
